N_SLOTS = 10;
LENGTHS = [5, 5, 5, 5, 4, 5, 5, 5, 5, 4];
N_INTERSECTIONS = 24;
SLOT1 = [1, 1, 1, 1, 1, 2, 2, 2, 2, 2, 3, 3, 3, 3, 3, 4, 4, 4, 4, 4, 5, 5, 5, 5];
POS1 = [1, 2, 3, 4, 5, 1, 2, 3, 4, 5, 1, 2, 3, 4, 5, 1, 2, 3, 4, 5, 1, 2, 3, 4];
SLOT2 = [6, 7, 8, 9, 10, 6, 7, 8, 9, 10, 6, 7, 8, 9, 10, 6, 7, 8, 9, 10, 6, 7, 8, 9];
POS2 = [1, 1, 1, 1, 1, 2, 2, 2, 2, 2, 3, 3, 3, 3, 3, 4, 4, 4, 4, 4, 5, 5, 5, 5];
N_DICT = 500;
DICT = ["date", "bles", "legat", "levai", "saxon", "ciel", "fifre", "armez", "usai", "suez", "issue", "malin", "ronge", "poter", "nitre", "meut", "baud", "ruina", "moule", "linga", "denue", "bombe", "ilote", "colis", "jades", "sevir", "lien", "crash", "codon", "telle", "subit", "rimee", "fus", "giter", "anche", "fixer", "espar", "khans", "lasso", "toge", "cabas", "forme", "menez", "yacks", "paru", "arbi", "nue", "grec", "cule", "epave", "pends", "vizir", "sevi", "semer", "floc", "suca", "buter", "cadi", "furax", "polak", "zooms", "agios", "duo", "melo", "nient", "fades", "guna", "venta", "due", "suce", "batit", "achat", "aigu", "besef", "haira", "jube", "glaca", "vaser", "corps", "auge", "ratte", "laine", "teams", "blond", "semi", "memo", "ruat", "sol", "vent", "saisi", "culex", "flac", "velum", "rifle", "gut", "micro", "crier", "petri", "madre", "eider", "clou", "douro", "merda", "avoua", "rock", "babi", "senor", "beurk", "elis", "hymen", "mimi", "velus", "tatai", "a-pic", "aviva", "amant", "tact", "keuf", "care", "bagou", "ebat", "fiord", "flash", "fines", "abris", "bodhi", "dc", "are", "sceau", "zizi", "volve", "blues", "traca", "rusee", "sacra", "atre", "amuse", "fiere", "jetai", "sioux", "usite", "indes", "sofa", "ban", "crime", "tunes", "kine", "bites", "kendo", "monts", "adobe", "sabot", "taret", "jette", "tors", "cade", "ramez", "axel", "caque", "soufi", "rosee", "theta", "hatee", "tacle", "bises", "vals", "somme", "gaie", "smart", "garda", "homes", "ovnis", "kiki", "taco", "niais", "eclat", "fiera", "spore", "toree", "midi", "lecha", "juste", "logis", "trip", "sires", "maure", "feule", "pigne", "civet", "tins", "magma", "dons", "vivre", "soin", "sati", "ceux", "largo", "este", "axee", "ouis", "herba", "macs", "murin", "guzla", "peut", "burin", "grisa", "fa", "tares", "hon", "duce", "jeze", "trine", "tau", "crepi", "psys", "caver", "kebla", "calez", "bite", "bates", "suc", "fous", "ove", "exigu", "sodas", "toges", "agite", "sabre", "oree", "mage", "bel", "amena", "pansa", "yin", "calin", "gadin", "dore", "silo", "crise", "bluff", "rose", "djinn", "gober", "luth", "peps", "zonal", "ninas", "viola", "forma", "spics", "payai", "sucra", "admet", "rince", "ragot", "boxez", "scies", "feint", "porto", "sols", "avait", "leve", "miree", "palpe", "genat", "daya", "bouzy", "otera", "vetue", "yaks", "tiree", "souri", "dunes", "paree", "vetus", "clot", "aga", "lucre", "balto", "cocha", "benie", "tarot", "flic", "stop", "dota", "douze", "epia", "sexto", "velo", "g", "jocko", "cabri", "impot", "voeux", "raff", "raya", "aras", "melat", "serre", "stups", "lande", "zest", "tonus", "amers", "joua", "murez", "lace", "alde", "fites", "chine", "criat", "verif", "pliai", "pubis", "shed", "tare", "raja", "moud", "gates", "gante", "siege", "oing", "futs", "nippe", "est", "decan", "carat", "toast", "fin", "buste", "nies", "sucon", "filon", "top", "dine", "boire", "dano", "syro", "blocs", "delco", "tisse", "franc", "rota", "maree", "clean", "cocus", "carvi", "zona", "nouez", "coi", "part", "souk", "musa", "aieul", "pavez", "voue", "raidi", "match", "pec", "pacs", "cadet", "futes", "drues", "farce", "ragea", "tango", "rabat", "expos", "rene", "lute", "brut", "lopin", "bijou", "yoga", "loche", "vil", "posta", "bille", "vexez", "rossa", "menus", "gemis", "hanta", "norme", "etats", "mucus", "louez", "connu", "gais", "eau", "brode", "eleva", "pulse", "choye", "amine", "index", "mil", "humes", "vice", "dabe", "tu", "jurez", "paire", "meat", "alias", "emis", "sana", "cotat", "ardue", "mure", "sil", "evase", "bars", "gacha", "etire", "sake", "filee", "quel", "incas", "coppa", "trac", "aere", "brame", "logo", "clan", "cloue", "lys", "mues", "frocs", "huard", "cajou", "ego", "locdu", "geres", "quite", "caoua", "fore", "ont", "pesee", "pipes", "opus", "cines", "ides", "mine", "quai", "vers", "banne", "situa", "gusto", "palle", "grays", "accu", "dors", "pues", "colin", "peses", "irez", "kids", "fifty", "bill", "iftar", "armai", "gin", "mire", "lulu", "acier", "ongle", "flapi", "luger", "cutis", "gifla", "sauge", "tolu", "alese", "allai", "ere", "foule", "york", "titi", "bacon", "athee", "fuis", "peint", "omets", "chef", "gere", "age", "hutte", "rugit", "huron", "nui", "liens", "tarda", "vite", "dose", "raide", "tuee", "pays", "tenor"];